
Welcome to IBM(R) ILOG(R) CPLEX(R) Interactive Optimizer 22.1.1.0
  with Simplex, Mixed Integer & Barrier Optimizers
5725-A06 5725-A29 5724-Y48 5724-Y49 5724-Y54 5724-Y55 5655-Y21
Copyright IBM Corp. 1988, 2022.  All Rights Reserved.

Type 'help' for a list of available commands.
Type 'help' followed by a command name for more
information on commands.

CPLEX> Selected objective sense:  MINIMIZE
Selected objective  name:  00000000
Selected RHS        name:  RHS1
Selected bound      name:  BOUND
Problem 'ee.mps' read.
Read time = 0.02 sec. (3.14 ticks)
CPLEX> New value for time limit in seconds: 7200
CPLEX> New value for parallel optimization mode: -1
CPLEX> New value for default parallel thread count: 40
CPLEX> New value for mixed integer optimality gap tolerance: 1e-13
CPLEX> Version identifier: 22.1.1.0 | 2022-11-28 | 9160aff4d
CPXPARAM_Threads                                 40
CPXPARAM_Parallel                                -1
CPXPARAM_TimeLimit                               7200
CPXPARAM_MIP_Tolerances_MIPGap                   1e-13
Found incumbent of value 0.000000 after 0.00 sec. (0.31 ticks)
Tried aggregator 2 times.
MIP Presolve eliminated 182 rows and 2745 columns.
MIP Presolve modified 5862 coefficients.
Aggregator did 713 substitutions.
Reduced MIP has 3624 rows, 7744 columns, and 28666 nonzeros.
Reduced MIP has 7744 binaries, 0 generals, 0 SOSs, and 0 indicators.
Presolve time = 0.06 sec. (68.81 ticks)
Probing time = 0.03 sec. (5.31 ticks)
Tried aggregator 1 time.
Detecting symmetries...
Reduced MIP has 3624 rows, 7744 columns, and 28666 nonzeros.
Reduced MIP has 7744 binaries, 0 generals, 0 SOSs, and 0 indicators.
Presolve time = 0.02 sec. (21.94 ticks)
Probing time = 0.02 sec. (5.09 ticks)
Clique table members: 18557.
MIP emphasis: balance optimality and feasibility.
MIP search method: dynamic search.
Parallel mode: opportunistic, using up to 40 threads.
Root relaxation solution time = 0.14 sec. (115.94 ticks)

        Nodes                                         Cuts/
   Node  Left     Objective  IInf  Best Integer    Best Bound    ItCnt     Gap

*     0+    0                            0.0000  -1.31000e+13              --- 
*     0+    0                      -2.19000e+12  -1.31000e+13           498.17%
*     0+    0                      -3.30000e+12  -1.31000e+13           296.97%
*     0+    0                      -4.40000e+12  -1.31000e+13           197.73%
*     0+    0                      -5.50000e+12  -1.31000e+13           138.18%
      0     0  -1.30900e+13   101  -5.50000e+12  -1.30900e+13     2355  138.00%
*     0+    0                      -1.30900e+13  -1.30900e+13             0.00%
      0     0  -1.30900e+13   188  -1.30900e+13      Cuts: 58     2986    0.00%
*     0+    0                      -1.30900e+13  -1.30900e+13             0.00%
      0     0  -1.30900e+13   214  -1.30900e+13      Cuts: 57     3838    0.00%
*     0+    0                      -1.30900e+13  -1.30900e+13             0.00%
*     0+    0                      -1.30900e+13  -1.30900e+13             0.00%
*     0+    0                      -1.30900e+13  -1.30900e+13             0.00%
*     0+    0                      -1.30900e+13  -1.30900e+13             0.00%
      0     2  -1.30900e+13   195  -1.30900e+13  -1.30900e+13     3863    0.00%
Elapsed time = 2.54 sec. (1151.33 ticks, tree = 0.02 MB, solutions = 13)
    507    31  -1.30900e+13   216  -1.30900e+13  -1.30900e+13    17265    0.00%
   1373    76  -1.30900e+13   202  -1.30900e+13  -1.30900e+13    29470    0.00%
   2346    95    infeasible        -1.30900e+13  -1.30900e+13    49008    0.00%
   3183    97        cutoff        -1.30900e+13  -1.30900e+13    50843    0.00%
   3820   262        cutoff        -1.30900e+13  -1.30900e+13   111459    0.00%
   4313   553  -1.30900e+13   152  -1.30900e+13  -1.30900e+13   243589    0.00%
*  4318   434      integral     0  -1.30900e+13  -1.30900e+13   186708    0.00%
   4805   754        cutoff        -1.30900e+13  -1.30900e+13   413563    0.00%
   5125   625  -1.30900e+13   178  -1.30900e+13  -1.30900e+13   289322    0.00%
   5390   667  -1.30900e+13   156  -1.30900e+13  -1.30900e+13   324654    0.00%
   6435   972        cutoff        -1.30900e+13  -1.30900e+13   641039    0.00%
Elapsed time = 8.70 sec. (4255.98 ticks, tree = 2.50 MB, solutions = 16)
   7656  1408  -1.30900e+13    95  -1.30900e+13  -1.30900e+13  1085409    0.00%
   8959  1344        cutoff        -1.30900e+13  -1.30900e+13  1029114    0.00%
  10362  1531  -1.30900e+13   158  -1.30900e+13  -1.30900e+13  1209198    0.00%
  11503  2021        cutoff        -1.30900e+13  -1.30900e+13  1843653    0.00%
  12349  1861        cutoff        -1.30900e+13  -1.30900e+13  1660333    0.00%
  13167  1864  -1.30900e+13   149  -1.30900e+13  -1.30900e+13  1672080    0.00%
  13974  2035        cutoff        -1.30900e+13  -1.30900e+13  1844163    0.00%

Performing restart 1

Repeating presolve.
Tried aggregator 2 times.
MIP Presolve eliminated 136 rows and 389 columns.
MIP Presolve added 10 rows and 0 columns.
MIP Presolve modified 2025 coefficients.
Aggregator did 94 substitutions.
Reduced MIP has 3331 rows, 7237 columns, and 26083 nonzeros.
Reduced MIP has 7237 binaries, 0 generals, 0 SOSs, and 0 indicators.
Presolve time = 0.05 sec. (48.01 ticks)
Tried aggregator 2 times.
MIP Presolve eliminated 9 rows and 39 columns.
MIP Presolve modified 24 coefficients.
Aggregator did 18 substitutions.
Reduced MIP has 3304 rows, 7174 columns, and 25859 nonzeros.
Reduced MIP has 7174 binaries, 0 generals, 0 SOSs, and 0 indicators.
Presolve time = 0.05 sec. (48.17 ticks)
Represolve time = 0.23 sec. (150.61 ticks)
  14198     0  -1.30900e+13   305  -1.30900e+13      Cuts: 35  2386110    0.00%
  14198     0  -1.30900e+13   277  -1.30900e+13      Cuts: 22  2386775    0.00%
  14198     0  -1.30900e+13   307  -1.30900e+13      Cuts: 34  2386975    0.00%
  14198     0  -1.30900e+13   400  -1.30900e+13      Cuts: 41  2387349    0.00%
  14198     0  -1.30900e+13   450  -1.30900e+13      Cuts: 48  2387532    0.00%
  14198     0  -1.30900e+13   458  -1.30900e+13      Cuts: 35  2387656    0.00%
  14198     7        cutoff        -1.30900e+13  -1.30900e+13  2401185    0.00%
  15782    57    infeasible        -1.30900e+13  -1.30900e+13  2407486    0.00%
  17167    92        cutoff        -1.30900e+13  -1.30900e+13  2414030    0.00%
Elapsed time = 29.47 sec. (16557.61 ticks, tree = 1.08 MB, solutions = 16)
  17766    81        cutoff        -1.30900e+13  -1.30900e+13  2416971    0.00%

GUB cover cuts applied:  3
Clique cuts applied:  11
Cover cuts applied:  276
Flow cuts applied:  5
Mixed integer rounding cuts applied:  33
Zero-half cuts applied:  65
Lift and project cuts applied:  6
Gomory fractional cuts applied:  18

Root node processing (before b&c):
  Real time             =    1.27 sec. (1126.49 ticks)
Parallel b&c, 40 threads:
  Real time             =   28.22 sec. (16845.84 ticks)
  Sync time (average)   =    8.50 sec.
  Wait time (average)   =    0.11 sec.
                          ------------
Total (root+branch&cut) =   29.50 sec. (17972.33 ticks)

Solution pool: 16 solutions saved.

MIP - Integer optimal solution:  Objective = -1.3089998590e+13
Solution time =   29.62 sec.  Iterations = 2526425  Nodes = 17841
Deterministic time = 17972.36 ticks  (606.74 ticks/sec)

CPLEX> Solution 'p17' written to file 'ee.sol'.
CPLEX> 